
Gurobi 12.0.2 (win64) logging started Sun Jun  8 11:32:55 2025

Set parameter LogFile to value "C:\Ioana\_uni\honours\slp\algorithm\Main_files\results\others\prox_tubules_new_model\Task_005_Sample005_irr_gurobi.log"
Gurobi Optimizer version 12.0.2 build v12.0.2rc0 (win64 - Windows 11.0 (26100.2))

CPU model: Intel(R) Core(TM) Ultra 5 125H, instruction set [SSE2|AVX|AVX2]
Thread count: 14 physical cores, 18 logical processors, using up to 18 threads

Non-default parameters:
TimeLimit  2200

Optimize a model with 47226 rows, 34501 columns and 146688 nonzeros
Model fingerprint: 0xc961150e
Variable types: 17256 continuous, 17245 integer (17245 binary)
Coefficient statistics:
  Matrix range     [1e-04, 8e+04]
  Objective range  [5e-05, 3e+00]
  Bounds range     [1e+00, 1e+03]
  RHS range        [1e+00, 1e+00]
Presolve removed 30824 rows and 21548 columns
Presolve time: 0.32s
Presolved: 16402 rows, 12953 columns, 54579 nonzeros
Variable types: 6410 continuous, 6543 integer (6543 binary)

Root relaxation: objective 2.071262e-04, 1502 iterations, 0.10 seconds (0.16 work units)

    Nodes    |    Current Node    |     Objective Bounds      |     Work
 Expl Unexpl |  Obj  Depth IntInf | Incumbent    BestBd   Gap | It/Node Time

     0     0    0.00021    0   12          -    0.00021      -     -    0s
H    0     0                       0.1955733    0.00021   100%     -    0s
     0     0    0.13497    0   18    0.19557    0.13497  31.0%     -    0s
     0     0    0.19074    0    1    0.19557    0.19074  2.47%     -    0s
     0     0     cutoff    0         0.19557    0.19557  0.00%     -    0s

Cutting planes:
  Flow cover: 3

Explored 1 nodes (1789 simplex iterations) in 0.75 seconds (0.78 work units)
Thread count was 18 (of 18 available processors)

Solution count 1: 0.195573 

Optimal solution found (tolerance 1.00e-04)
Best objective 1.955733390681e-01, best bound 1.955733390681e-01, gap 0.0000%
